Route #1: 22 12 38 39 26 46 47 
Route #2: 6 32 28 2 17 15 
Route #3: 34 44 19 48 40 49 
Route #4: 37 11 8 20 5 45 21 36 
Route #5: 7 30 14 43 24 27 16 42 10 3 
Route #6: 35 29 4 13 1 23 9 
Route #7: 33 41 31 18 25 
cost 803.239
execution_time 15.064
